(set-logic ALL)
(declare-fun seed0_T_1 () Bool)
(declare-fun seed0_var_0xINPUT_113286 () String)
(assert (and (or (= seed0_T_1 (not (= "A9jaaDKZbG" seed0_var_0xINPUT_113286))) (str.<= (str.++ seed0_var_0xINPUT_113286 "") (str.++ seed0_var_0xINPUT_113286 "Ax"))) (or seed0_T_1 (and (str.< (str.++ seed0_var_0xINPUT_113286 "RuQWLiGzn8ScEds3w4") (str.++ seed0_var_0xINPUT_113286 "YkGR7")) (str.prefixof (str.++ seed0_var_0xINPUT_113286 "MeY7wgR0Fn2PVjZUr") (str.++ seed0_var_0xINPUT_113286 "BxmGIT0WaUF8z"))))))
(check-sat)
(exit)